10 45
1 2 11
1 3 3
1 4 28
1 5 0
1 6 29
1 7 21
1 8 3
1 9 4
1 10 25
2 3 24
2 4 15
2 5 1
2 6 14
2 7 21
2 8 25
2 9 22
2 10 8
3 4 23
3 5 14
3 6 8
3 7 21
3 8 12
3 9 2
3 10 28
4 5 24
4 6 12
4 7 17
4 8 6
4 9 4
4 10 14
5 6 24
5 7 14
5 8 10
5 9 4
5 10 22
6 7 4
6 8 25
6 9 29
6 10 15
7 8 17
7 9 6
7 10 12
8 9 10
8 10 11
9 10 8
